n = 15;
m = 61;

max_len = 7;
word_lens = [ 4, 4, 4, 4, 4, 4, 4, 4, 4, 4, 4, 4, 4, 4, 4, 4, 4, 4, 4, 4, 4, 4, 4, 4, 4, 4, 4, 4, 4, 4, 4, 4, 4, 4, 4, 4, 4, 4, 4, 5, 5, 5, 5, 5, 5, 5, 5, 5, 5, 5, 5, 5, 5, 5, 5, 5, 5, 5, 5, 6, 7 ];
words = [| L, A, S, T, E, E, E | S, P, O, T, E, E, E | D, A, Y, S, E, E, E | E, V, E, N, E, E, E | M, O, O, N, E, E, E | L, A, T, E, E, E, E | M, O, L, D, E, E, E | N, O, O, N, E, E, E | D, I, E, L, E, E, E | C, A, M, E, E, E, E | W, H, A, T, E, E, E | H, E, L, D, E, E, E | H, E, R, O, E, E, E | L, A, N, D, E, E, E | P, O, S, T, E, E, E | M, O, R, N, E, E, E | W, A, S, H, E, E, E | T, U, R, N, E, E, E | G, A, M, E, E, E, E | F, O, R, M, E, E, E | L, I, C, K, E, E, E | B, O, O, K, E, E, E | C, R, O, P, E, E, E | M, A, K, E, E, E, E | P, L, A, Y, E, E, E | T, O, I, L, E, E, E | B, U, L, L, E, E, E | L, I, N, E, E, E, E | H, I, R, E, E, E, E | W, E, E, K, E, E, E | I, S, H, A, E, E, E | T, A, S, K, E, E, E | D, U, T, Y, E, E, E | S, O, U, R, E, E, E | P, L, O, W, E, E, E | H, E, L, P, E, E, E | W, O, R, K, E, E, E | D, U, S, K, E, E, E | D, E, A, L, E, E, E | P, L, A, C, E, E, E | C, A, P, E, R, E, E | S, T, U, D, Y, E, E | M, O, U, L, D, E, E | F, O, R, G, E, E, E | A, P, P, L, Y, E, E | N, I, G, H, T, E, E | S, P, O, R, T, E, E | S, H, A, P, E, E, E | K, N, E, A, D, E, E | W, R, E, A, K, E, E | L, A, B, O, R, E, E | S, O, L, V, E, E, E | T, O, D, A, Y, E, E | B, E, R, T, H, E, E | B, R, I, N, G, E, E | C, H, O, R, E, E, E | S, T, I, N, T, E, E | M, O, N, E, Y, E, E | C, H, E, A, T, E, E | R, E, A, S, O, N, E | O, P, E, R, A, T, E |];

pos_var_strat = first_fail;
pos_val_strat = indomain_median;
